30
5
652378
0
0
51 53 55 49 53
1
0
48 47 48 46 49
2
0
59 59 57 56 60
3
0
57 54 57 53 56
4
0
53 49 49 45 45
5
0
64 60 59 62 62
6
0
52 53 50 51 59
7
0
59 54 55 56 55
8
0
52 53 52 53 49
9
0
47 47 50 47 51
10
0
42 45 44 45 41
11
0
56 59 56 60 53
12
0
47 47 48 47 46
13
0
44 41 42 45 40
14
0
59 57 56 56 60
15
0
35 37 37 34 35
16
0
62 63 65 61 62
17
0
84 84 84 83 82
18
0
57 52 60 52 56
19
0
61 60 60 67 59
20
0
64 62 59 58 58
21
0
53 60 55 55 53
22
0
52 51 52 50 48
23
0
53 52 52 53 50
24
0
52 50 46 50 50
25
0
59 56 56 55 58
26
0
49 48 48 48 48
27
0
42 39 45 42 43
28
0
57 58 55 52 57
29
0
37 36 37 37 37
